projected/problems_b25_r0_d7_m100_s666/_DIMACS/b25_d7_r0_s666_080.cnf
p cnf 225 348 25
c p show 1 2 3 4 5 6 7 8 9 10 11 12 13 14 15 16 17 18 19 20 21 22 23 24 25
-137 -20 0
-138 7 25 0
-139 138 137 0
-140 3 -6 0
-141 22 -4 0
-142 141 140 0
-143 142 139 0
-144 4 0
-144 23 0
-145 -6 0
-145 19 0
-146 145 0
-146 144 0
-147 6 17 0
-148 -17 -6 0
-149 148 0
-149 147 0
-150 25 0
-150 -12 0
-151 150 149 0
-152 151 0
-152 146 0
-153 152 0
-153 143 0
-154 18 24 0
-155 12 0
-155 1 0
-156 155 154 0
-157 -24 -22 0
-158 1 -4 0
-159 158 157 0
-160 159 0
-160 156 0
-161 -11 0
-161 -23 0
-162 -23 11 0
-164 162 0
-164 161 0
-165 -24 -17 0
-166 17 24 0
-167 166 0
-167 165 0
-168 7 0
-168 -15 0
-169 168 0
-169 167 0
-170 169 0
-170 164 0
-171 170 160 0
-172 11 23 0
-173 23 0
-173 -11 0
-175 173 172 0
-176 24 0
-176 17 0
-177 -17 0
-177 -24 0
-178 177 176 0
-179 -7 15 0
-180 179 178 0
-181 180 175 0
-182 -18 0
-182 -24 0
-183 -12 -1 0
-184 183 0
-184 182 0
-186 24 0
-186 22 0
-187 -1 0
-187 4 0
-188 187 0
-188 186 0
-189 188 184 0
-190 189 181 0
-192 190 0
-192 171 0
-193 192 0
-193 153 0
-194 -10 0
-194 -9 0
-195 -17 0
-195 6 0
-196 -6 0
-196 17 0
-197 196 195 0
-198 197 194 0
-199 -7 -2 0
-200 -15 0
-200 23 0
-201 200 199 0
-202 201 198 0
-203 -2 0
-203 5 0
-204 -4 25 0
-205 204 203 0
-206 -24 0
-206 -4 0
-207 -14 0
-207 2 0
-208 207 206 0
-209 208 205 0
-210 24 4 0
-211 14 -2 0
-212 211 0
-212 210 0
-213 2 -5 0
-214 4 0
-214 -25 0
-215 214 0
-215 213 0
-216 215 212 0
-217 216 0
-217 209 0
-218 217 202 0
-219 4 -24 0
-220 9 11 0
-221 -11 -9 0
-222 221 0
-222 220 0
-223 222 0
-223 219 0
-224 -9 0
-224 -11 0
-225 11 0
-225 9 0
-26 225 224 0
-27 -4 0
-27 24 0
-28 27 0
-28 26 0
-29 28 223 0
-163 23 0
-163 20 0
-30 -22 0
-30 10 0
-174 -10 0
-174 22 0
-31 174 30 0
-185 31 163 0
-191 185 0
-191 29 0
-32 -12 20 0
-33 -3 0
-33 14 0
-34 33 32 0
-35 5 0
-35 25 0
-36 11 0
-36 -1 0
-37 36 35 0
-38 37 34 0
-39 38 0
-39 191 0
-40 39 218 0
-41 40 0
-41 193 0
-42 -20 -18 0
-43 24 -11 0
-44 43 42 0
-45 -3 -19 0
-46 19 3 0
-47 46 0
-47 45 0
-48 -14 8 0
-49 48 0
-49 47 0
-50 14 0
-50 -8 0
-51 3 0
-51 19 0
-52 -19 0
-52 -3 0
-53 52 51 0
-54 53 0
-54 50 0
-55 54 49 0
-56 55 0
-56 44 0
-57 10 0
-57 24 0
-58 18 -7 0
-59 58 57 0
-60 25 0
-60 -2 0
-61 25 8 0
-62 -8 -25 0
-63 62 0
-63 61 0
-64 63 0
-64 60 0
-65 64 0
-65 59 0
-66 65 56 0
-67 -10 2 0
-68 9 0
-68 -11 0
-69 68 67 0
-70 24 0
-70 -7 0
-71 7 0
-71 -24 0
-72 71 70 0
-73 -21 21 0
-74 73 0
-74 72 0
-75 74 69 0
-76 19 0
-76 -9 0
-77 -20 0
-77 -23 0
-78 77 0
-78 76 0
-79 17 19 0
-80 17 7 0
-81 -7 -17 0
-82 81 0
-82 80 0
-83 82 0
-83 79 0
-84 83 78 0
-85 84 75 0
-86 85 66 0
-87 9 -13 0
-88 13 -9 0
-89 88 0
-89 87 0
-90 7 -10 0
-91 90 0
-91 89 0
-92 -7 0
-92 10 0
-93 -9 0
-93 13 0
-94 -13 0
-94 9 0
-95 94 93 0
-96 95 0
-96 92 0
-97 96 91 0
-98 -22 6 0
-99 -21 0
-99 -11 0
-100 99 98 0
-101 100 97 0
-102 24 0
-102 -18 0
-103 -7 0
-103 5 0
-104 103 102 0
-105 18 -14 0
-106 -3 -17 0
-107 106 105 0
-108 107 104 0
-109 108 101 0
-110 -22 -1 0
-111 16 0
-112 111 110 0
-113 -13 0
-113 -1 0
-114 1 0
-114 13 0
-115 114 113 0
-116 -16 0
-116 11 0
-117 116 0
-117 115 0
-118 117 0
-118 112 0
-119 -2 0
-119 25 0
-120 21 -16 0
-121 120 0
-121 119 0
-122 -21 0
-122 16 0
-123 2 -25 0
-124 123 0
-124 122 0
-125 124 121 0
-126 -17 5 0
-127 12 9 0
-128 127 0
-128 126 0
-129 -12 0
-129 -9 0
-130 17 0
-130 -5 0
-131 130 0
-131 129 0
-132 131 128 0
-133 132 0
-133 125 0
-134 133 0
-134 118 0
-135 134 109 0
-136 135 86 0
136 41 0
-161 -172 0
-172 -161 0
-162 -173 0
-173 -162 0
-175 -164 0
-164 -175 0
-167 -178 0
-178 -167 0
-168 -179 0
-179 -168 0
-180 -169 0
-169 -180 0
-170 -181 0
-181 -170 0
-154 -182 0
-182 -154 0
-183 -155 0
-184 -156 0
-156 -184 0
-186 -157 0
-158 -187 0
-187 -158 0
-188 -159 0
-159 -188 0
-160 -189 0
-210 -206 0
-211 -207 0
-212 -208 0
-203 -213 0
-213 -203 0
-204 -214 0
-214 -204 0
-215 -205 0
-205 -215 0
-222 -26 0
-27 -219 0
-48 -50 0
-47 -53 0
-53 -47 0
-92 -90 0
-90 -92 0
-89 -95 0
-95 -89 0
-122 -120 0
-120 -122 0
-119 -123 0
-123 -119 0
-129 -127 0
-127 -129 0
-126 -130 0
-130 -126 0
