projected/problems_b25_r0_d7_m100_s666/b25_d7_r0_s666_080.smt2
(set-logic QF_UF)
(declare-fun A0 () Bool)
(declare-fun A1 () Bool)
(declare-fun A2 () Bool)
(declare-fun A3 () Bool)
(declare-fun A4 () Bool)
(declare-fun A5 () Bool)
(declare-fun A6 () Bool)
(declare-fun A7 () Bool)
(declare-fun A8 () Bool)
(declare-fun A9 () Bool)
(declare-fun A10 () Bool)
(declare-fun A11 () Bool)
(declare-fun A12 () Bool)
(declare-fun A13 () Bool)
(declare-fun A14 () Bool)
(declare-fun A15 () Bool)
(declare-fun A16 () Bool)
(declare-fun A17 () Bool)
(declare-fun A18 () Bool)
(declare-fun A19 () Bool)
(declare-fun A20 () Bool)
(declare-fun A21 () Bool)
(declare-fun A22 () Bool)
(declare-fun A23 () Bool)
(declare-fun A24 () Bool)
(assert (let ((.def_0 (and A19 A19))) (let ((.def_1 (not A24))) (let ((.def_2 (not A6))) (let ((.def_3 (and .def_2 .def_1))) (let ((.def_4 (and .def_3 .def_0))) (let ((.def_5 (not A5))) (let ((.def_6 (or A2 .def_5))) (let ((.def_7 (not .def_6))) (let ((.def_8 (not A3))) (let ((.def_9 (or A21 .def_8))) (let ((.def_10 (not .def_9))) (let ((.def_11 (and .def_10 .def_7))) (let ((.def_12 (and .def_11 .def_4))) (let ((.def_13 (and A3 A22))) (let ((.def_14 (and .def_5 A18))) (let ((.def_15 (and .def_14 .def_13))) (let ((.def_16 (= A16 .def_5))) (let ((.def_17 (not .def_16))) (let ((.def_18 (or .def_1 A11))) (let ((.def_19 (and .def_18 .def_17))) (let ((.def_20 (not .def_19))) (let ((.def_21 (and .def_20 .def_15))) (let ((.def_22 (not .def_21))) (let ((.def_23 (or .def_22 .def_12))) (let ((.def_24 (not .def_23))) (let ((.def_25 (not A22))) (let ((.def_26 (not A10))) (let ((.def_27 (and .def_26 .def_25))) (let ((.def_28 (not .def_27))) (let ((.def_29 (or .def_25 A10))) (let ((.def_30 (not .def_29))) (let ((.def_31 (or .def_30 .def_28))) (let ((.def_32 (not .def_31))) (let ((.def_33 (not A16))) (let ((.def_34 (= .def_33 A23))) (let ((.def_35 (not .def_34))) (let ((.def_36 (not A14))) (let ((.def_37 (and A6 .def_36))) (let ((.def_38 (not .def_37))) (let ((.def_39 (or .def_38 .def_35))) (let ((.def_40 (not .def_39))) (let ((.def_41 (and .def_40 .def_32))) (let ((.def_42 (not .def_41))) (let ((.def_43 (or A17 A23))) (let ((.def_44 (not .def_43))) (let ((.def_45 (not A0))) (let ((.def_46 (not A11))) (let ((.def_47 (or .def_46 .def_45))) (let ((.def_48 (and .def_47 .def_44))) (let ((.def_49 (not .def_48))) (let ((.def_50 (and A23 A21))) (let ((.def_51 (or A0 .def_8))) (let ((.def_52 (not .def_51))) (let ((.def_53 (and .def_52 .def_50))) (let ((.def_54 (not .def_53))) (let ((.def_55 (and .def_54 .def_49))) (let ((.def_56 (= .def_55 .def_42))) (let ((.def_57 (and .def_56 .def_24))) (let ((.def_58 (not .def_57))) (let ((.def_59 (not A8))) (let ((.def_60 (not A9))) (let ((.def_61 (and .def_60 .def_59))) (let ((.def_62 (= .def_5 .def_33))) (let ((.def_63 (not .def_62))) (let ((.def_64 (or .def_63 .def_61))) (let ((.def_65 (and A6 A1))) (let ((.def_66 (not .def_65))) (let ((.def_67 (or A14 .def_25))) (let ((.def_68 (not .def_67))) (let ((.def_69 (or .def_68 .def_66))) (let ((.def_70 (or .def_69 .def_64))) (let ((.def_71 (not .def_70))) (let ((.def_72 (or A23 A3))) (let ((.def_73 (not A1))) (let ((.def_74 (or A13 .def_73))) (let ((.def_75 (and .def_74 .def_72))) (let ((.def_76 (and .def_73 A4))) (let ((.def_77 (not .def_76))) (let ((.def_78 (or .def_8 A24))) (let ((.def_79 (not .def_78))) (let ((.def_80 (and .def_79 .def_77))) (let ((.def_81 (not .def_80))) (let ((.def_82 (= .def_81 .def_75))) (let ((.def_83 (not .def_82))) (let ((.def_84 (and .def_83 .def_71))) (let ((.def_85 (not .def_84))) (let ((.def_86 (= A10 .def_59))) (let ((.def_87 (and .def_8 A23))) (let ((.def_88 (= .def_87 .def_86))) (let ((.def_89 (not .def_88))) (let ((.def_90 (not A19))) (let ((.def_91 (or .def_25 .def_90))) (let ((.def_92 (not .def_91))) (let ((.def_93 (not A21))) (let ((.def_94 (= .def_60 .def_93))) (let ((.def_95 (not .def_94))) (let ((.def_96 (or .def_95 .def_92))) (let ((.def_97 (and .def_96 .def_89))) (let ((.def_98 (and A11 .def_90))) (let ((.def_99 (not .def_98))) (let ((.def_100 (not A2))) (let ((.def_101 (and .def_100 A13))) (let ((.def_102 (or .def_101 .def_99))) (let ((.def_103 (not .def_102))) (let ((.def_104 (and A4 A24))) (let ((.def_105 (not .def_104))) (let ((.def_106 (and A10 .def_45))) (let ((.def_107 (not .def_106))) (let ((.def_108 (and .def_107 .def_105))) (let ((.def_109 (and .def_108 .def_103))) (let ((.def_110 (not .def_109))) (let ((.def_111 (and .def_110 .def_97))) (let ((.def_112 (or .def_111 .def_85))) (let ((.def_113 (not .def_112))) (let ((.def_114 (or .def_113 .def_58))) (let ((.def_115 (not .def_114))) (let ((.def_116 (not A17))) (let ((.def_117 (or .def_90 .def_116))) (let ((.def_118 (or A23 .def_26))) (let ((.def_119 (or .def_118 .def_117))) (let ((.def_120 (not A13))) (let ((.def_121 (or .def_120 A7))) (let ((.def_122 (not A18))) (let ((.def_123 (= .def_122 A2))) (let ((.def_124 (not .def_123))) (let ((.def_125 (= .def_124 .def_121))) (let ((.def_126 (not .def_125))) (let ((.def_127 (and .def_126 .def_119))) (let ((.def_128 (not A23))) (let ((.def_129 (or .def_60 .def_128))) (let ((.def_130 (not .def_129))) (let ((.def_131 (and .def_116 A6))) (let ((.def_132 (not .def_131))) (let ((.def_133 (or .def_132 .def_130))) (let ((.def_134 (or .def_1 A1))) (let ((.def_135 (not .def_134))) (let ((.def_136 (= A7 .def_1))) (let ((.def_137 (and .def_136 .def_135))) (let ((.def_138 (and .def_137 .def_133))) (let ((.def_139 (or .def_138 .def_127))) (let ((.def_140 (and A9 .def_73))) (let ((.def_141 (and A8 .def_26))) (let ((.def_142 (not .def_141))) (let ((.def_143 (and .def_142 .def_140))) (let ((.def_144 (not .def_143))) (let ((.def_145 (= A6 A23))) (let ((.def_146 (not A20))) (let ((.def_147 (and A20 .def_146))) (let ((.def_148 (or .def_147 .def_145))) (let ((.def_149 (not .def_148))) (let ((.def_150 (or .def_149 .def_144))) (let ((.def_151 (or .def_122 A8))) (let ((.def_152 (and .def_90 .def_25))) (let ((.def_153 (not .def_152))) (let ((.def_154 (or .def_153 .def_151))) (let ((.def_155 (not .def_154))) (let ((.def_156 (and .def_33 .def_122))) (let ((.def_157 (not .def_156))) (let ((.def_158 (= A6 .def_33))) (let ((.def_159 (and .def_158 .def_157))) (let ((.def_160 (or .def_159 .def_155))) (let ((.def_161 (or .def_160 .def_150))) (let ((.def_162 (or .def_161 .def_139))) (let ((.def_163 (and .def_2 A9))) (let ((.def_164 (not .def_163))) (let ((.def_165 (not A12))) (let ((.def_166 (= .def_165 .def_59))) (let ((.def_167 (not .def_166))) (let ((.def_168 (= .def_167 .def_164))) (let ((.def_169 (or .def_93 A5))) (let ((.def_170 (not .def_169))) (let ((.def_171 (and .def_146 .def_26))) (let ((.def_172 (not .def_171))) (let ((.def_173 (and .def_172 .def_170))) (let ((.def_174 (and .def_173 .def_168))) (let ((.def_175 (and A23 .def_116))) (let ((.def_176 (not .def_175))) (let ((.def_177 (and .def_2 A4))) (let ((.def_178 (not .def_177))) (let ((.def_179 (and .def_178 .def_176))) (let ((.def_180 (or A17 .def_120))) (let ((.def_181 (and A2 A16))) (let ((.def_182 (not .def_181))) (let ((.def_183 (or .def_182 .def_180))) (let ((.def_184 (not .def_183))) (let ((.def_185 (and .def_184 .def_179))) (let ((.def_186 (and .def_185 .def_174))) (let ((.def_187 (or .def_93 .def_45))) (let ((.def_188 (not A15))) (let ((.def_189 (and .def_188 .def_188))) (let ((.def_190 (not .def_189))) (let ((.def_191 (or .def_190 .def_187))) (let ((.def_192 (not .def_191))) (let ((.def_193 (= A0 .def_165))) (let ((.def_194 (or A15 .def_26))) (let ((.def_195 (or .def_194 .def_193))) (let ((.def_196 (or .def_195 .def_192))) (let ((.def_197 (and .def_146 A15))) (let ((.def_198 (not .def_197))) (let ((.def_199 (and .def_73 A24))) (let ((.def_200 (not .def_199))) (let ((.def_201 (= .def_200 .def_198))) (let ((.def_202 (and .def_46 .def_59))) (let ((.def_203 (not .def_202))) (let ((.def_204 (or .def_33 A4))) (let ((.def_205 (not .def_204))) (let ((.def_206 (= .def_205 .def_203))) (let ((.def_207 (or .def_206 .def_201))) (let ((.def_208 (or .def_207 .def_196))) (let ((.def_209 (and .def_208 .def_186))) (let ((.def_210 (not .def_209))) (let ((.def_211 (or .def_210 .def_162))) (let ((.def_212 (or .def_211 .def_115))) .def_212))))))))))))))))))))))))))))))))))))))))))))))))))))))))))))))))))))))))))))))))))))))))))))))))))))))))))))))))))))))))))))))))))))))))))))))))))))))))))))))))))))))))))))))))))))))))))))))))))))))))))))))))))))))
(check-sat)
